500
100 100
1 70 784
2 70 979
3 70 901
4 70 51
5 70 529
6 70 604
7 70 791
8 70 210
9 70 376
10 70 383
11 70 682
12 70 343
13 70 228
14 69 676
15 69 911
16 69 984
17 69 723
18 69 902
19 69 597
20 69 811
21 69 119
22 68 418
23 68 472
24 68 456
25 68 76
26 68 939
27 68 406
28 68 506
29 68 709
30 67 684
31 67 45
32 67 111
33 67 194
34 67 247
35 67 603
36 66 561
37 66 467
38 66 150
39 66 279
40 66 406
41 66 812
42 66 370
43 66 41
44 66 602
45 66 819
46 66 864
47 66 939
48 66 758
49 65 266
50 65 520
51 65 533
52 64 535
53 64 704
54 64 521
55 64 930
56 64 593
57 64 417
58 64 427
59 63 97
60 63 477
61 63 588
62 63 850
63 63 89
64 63 137
65 63 135
66 63 888
67 63 209
68 62 149
69 62 107
70 62 243
71 62 155
72 62 703
73 62 439
74 62 199
75 62 666
76 61 326
77 61 238
78 61 119
79 61 639
80 61 646
81 61 522
82 61 774
83 61 898
84 60 23
85 60 194
86 60 437
87 60 291
88 60 680
89 59 261
90 59 3
91 59 90
92 59 634
93 59 50
94 59 295
95 59 169
96 59 316
97 58 230
98 58 556
99 58 597
100 58 465
101 58 250
102 58 603
103 58 680
104 58 259
105 58 590
106 57 964
107 57 7
108 57 89
109 57 980
110 57 26
111 57 896
112 56 38
113 56 589
114 56 481
115 56 910
116 56 577
117 56 227
118 56 411
119 55 954
120 55 597
121 54 504
122 54 369
123 54 502
124 54 102
125 54 924
126 53 961
127 53 58
128 53 791
129 53 745
130 53 809
131 53 382
132 53 311
133 53 352
134 52 898
135 52 759
136 52 67
137 52 23
138 52 576
139 52 623
140 52 958
141 52 91
142 52 52
143 51 934
144 51 573
145 51 336
146 51 68
147 51 604
148 51 788
149 51 71
150 51 262
151 51 488
152 51 619
153 50 41
154 50 774
155 50 11
156 50 113
157 50 696
158 50 922
159 50 846
160 50 68
161 50 882
162 50 31
163 50 777
164 49 589
165 49 101
166 49 392
167 49 267
168 49 15
169 48 885
170 48 221
171 48 365
172 48 505
173 48 382
174 48 275
175 47 943
176 47 47
177 47 200
178 47 245
179 47 160
180 47 80
181 47 444
182 47 381
183 47 9
184 47 933
185 46 127
186 46 300
187 46 924
188 46 262
189 46 268
190 46 684
191 46 234
192 46 630
193 46 656
194 45 922
195 45 8
196 45 438
197 45 702
198 45 84
199 45 89
200 45 328
201 45 850
202 45 13
203 45 307
204 45 280
205 45 597
206 45 131
207 44 26
208 44 223
209 44 409
210 44 146
211 44 518
212 44 523
213 44 482
214 43 643
215 43 632
216 43 913
217 43 113
218 43 699
219 43 968
220 43 28
221 43 726
222 43 678
223 42 230
224 42 450
225 42 65
226 42 781
227 42 607
228 42 475
229 41 258
230 41 938
231 41 757
232 41 469
233 41 743
234 41 850
235 41 611
236 41 715
237 41 21
238 41 704
239 41 444
240 41 823
241 41 945
242 41 587
243 40 881
244 40 671
245 40 458
246 40 948
247 40 125
248 40 291
249 40 584
250 39 947
251 39 494
252 39 921
253 39 687
254 39 4
255 39 622
256 39 843
257 39 304
258 39 117
259 38 157
260 38 5
261 38 274
262 38 358
263 38 426
264 38 559
265 38 577
266 38 667
267 37 979
268 37 730
269 37 635
270 37 513
271 37 732
272 36 541
273 36 543
274 36 438
275 36 88
276 36 733
277 36 926
278 36 608
279 36 292
280 35 645
281 35 391
282 35 243
283 35 406
284 35 174
285 35 4
286 35 638
287 35 992
288 35 235
289 35 532
290 34 441
291 34 519
292 34 249
293 34 947
294 34 553
295 34 677
296 34 72
297 34 583
298 34 31
299 34 990
300 34 387
301 33 550
302 33 247
303 33 767
304 33 4
305 33 37
306 33 50
307 33 243
308 32 840
309 32 865
310 32 757
311 32 14
312 31 512
313 31 214
314 31 933
315 31 337
316 31 630
317 31 765
318 31 992
319 31 365
320 31 480
321 30 217
322 30 903
323 30 773
324 30 941
325 30 630
326 30 262
327 30 294
328 30 655
329 29 402
330 29 901
331 29 319
332 29 717
333 29 804
334 29 453
335 29 700
336 29 911
337 29 15
338 28 689
339 28 890
340 28 968
341 28 237
342 28 15
343 28 42
344 28 963
345 28 699
346 28 312
347 28 655
348 27 77
349 27 609
350 27 816
351 27 157
352 27 601
353 27 78
354 26 512
355 26 387
356 26 93
357 26 516
358 26 344
359 26 593
360 26 551
361 26 650
362 26 622
363 26 903
364 25 455
365 25 430
366 25 533
367 25 87
368 25 733
369 25 58
370 25 724
371 25 740
372 25 458
373 25 28
374 25 53
375 24 459
376 24 269
377 24 422
378 24 105
379 24 489
380 24 256
381 23 833
382 23 530
383 23 179
384 23 904
385 23 715
386 23 941
387 23 602
388 23 77
389 23 698
390 23 561
391 22 603
392 22 786
393 22 581
394 22 127
395 22 1
396 22 773
397 22 103
398 21 300
399 21 768
400 21 398
401 21 295
402 21 905
403 21 443
404 21 323
405 21 387
406 21 663
407 21 185
408 21 909
409 21 219
410 21 314
411 20 32
412 20 77
413 20 707
414 20 470
415 20 680
416 20 693
417 19 886
418 19 891
419 19 344
420 19 52
421 19 539
422 19 227
423 19 724
424 18 850
425 18 474
426 17 299
427 17 797
428 17 556
429 17 148
430 17 400
431 17 526
432 17 598
433 17 997
434 16 44
435 16 585
436 16 370
437 16 492
438 16 106
439 16 350
440 16 141
441 16 431
442 16 554
443 16 5
444 15 480
445 15 980
446 15 308
447 15 361
448 15 445
449 15 303
450 15 27
451 15 34
452 14 31
453 14 986
454 14 372
455 14 649
456 14 361
457 14 870
458 14 276
459 13 373
460 13 103
461 13 533
462 13 154
463 13 884
464 13 702
465 13 558
466 13 124
467 12 515
468 12 792
469 12 739
470 12 200
471 12 318
472 12 257
473 12 556
474 12 450
475 12 157
476 12 225
477 12 449
478 11 441
479 11 769
480 11 57
481 11 370
482 11 635
483 11 782
484 11 298
485 11 892
486 11 545
487 11 635
488 11 33
489 11 446
490 11 846
491 10 994
492 10 625
493 10 231
494 10 39
495 10 454
496 10 415
497 10 25
498 10 672
499 10 327
500 10 49
